c random clauses
p cnf 11 32
-11 -10 -8 -4 -3 -2 5 9 0
-11 -10 -6 -3 1 5 8 9 0
-11 -9 -8 -7 -6 1 2 3 0
-11 -9 -7 -4 -1 2 3 8 0
-11 -9 -4 -2 3 5 6 10 0
-11 -8 -7 -2 -1 4 5 6 0
-11 -8 -5 -4 -3 6 7 10 0
-11 -8 -4 -2 1 5 6 9 0
-11 -8 -3 -1 2 5 7 10 0
-11 -7 -2 -1 3 5 8 10 0
-11 -6 -5 -4 -1 2 3 10 0
-11 -5 -4 -2 6 7 8 10 0
-11 -5 -3 -2 1 7 9 10 0
-11 1 3 4 5 7 8 10 0
-10 -9 -8 -4 -3 2 5 11 0
-10 -9 -7 -4 -2 1 5 8 0
-10 -8 -6 -5 -4 -3 2 9 0
-10 -8 -6 -5 1 2 4 7 0
-10 -8 -4 -3 1 6 9 11 0
-10 -7 -6 -4 -3 -2 1 5 0
-10 -7 -6 -3 -2 4 5 8 0
-10 -7 -4 1 3 6 8 11 0
-10 -4 -1 5 6 7 8 9 0
-8 -7 -6 -4 -2 -1 5 11 0
-8 -6 1 4 7 9 10 11 0
-8 -3 1 4 5 9 10 11 0
-7 -5 -4 1 2 8 9 10 0
-7 -5 -3 -2 4 8 10 11 0
-7 -4 -2 3 5 6 10 11 0
-7 -1 2 4 8 9 10 11 0
-4 1 2 6 8 9 10 11 0
-2 -1 3 4 5 7 9 10 0
